p wcnf 21 165 7
1 1 4 7 10 13 16 19 0
2 2 5 8 11 14 17 20 0
3 3 6 9 12 15 18 21 0
7 -1 -5 0
7 -1 -6 0
7 -2 -4 0
7 -2 -6 0
7 -3 -4 0
7 -3 -5 0
7 -1 -8 0
7 -1 -9 0
7 -2 -7 0
7 -2 -9 0
7 -3 -7 0
7 -3 -8 0
7 -1 -14 0
7 -1 -15 0
7 -2 -13 0
7 -2 -15 0
7 -3 -13 0
7 -3 -14 0
7 -1 -17 0
7 -1 -18 0
7 -2 -16 0
7 -2 -18 0
7 -3 -16 0
7 -3 -17 0
7 -1 -20 0
7 -1 -21 0
7 -2 -19 0
7 -2 -21 0
7 -3 -19 0
7 -3 -20 0
7 -4 -8 0
7 -4 -9 0
7 -5 -7 0
7 -5 -9 0
7 -6 -7 0
7 -6 -8 0
7 -4 -14 0
7 -4 -15 0
7 -5 -13 0
7 -5 -15 0
7 -6 -13 0
7 -6 -14 0
7 -4 -17 0
7 -4 -18 0
7 -5 -16 0
7 -5 -18 0
7 -6 -16 0
7 -6 -17 0
7 -4 -20 0
7 -4 -21 0
7 -5 -19 0
7 -5 -21 0
7 -6 -19 0
7 -6 -20 0
7 -7 -17 0
7 -7 -18 0
7 -8 -16 0
7 -8 -18 0
7 -9 -16 0
7 -9 -17 0
7 -7 -20 0
7 -7 -21 0
7 -8 -19 0
7 -8 -21 0
7 -9 -19 0
7 -9 -20 0
7 -10 -14 0
7 -10 -15 0
7 -11 -13 0
7 -11 -15 0
7 -12 -13 0
7 -12 -14 0
7 -13 -20 0
7 -13 -21 0
7 -14 -19 0
7 -14 -21 0
7 -15 -19 0
7 -15 -20 0
7 -1 -4 0
7 -1 -7 0
7 -1 -10 0
7 -1 -13 0
7 -1 -16 0
7 -1 -19 0
7 -2 -5 0
7 -2 -8 0
7 -2 -11 0
7 -2 -14 0
7 -2 -17 0
7 -2 -20 0
7 -3 -6 0
7 -3 -9 0
7 -3 -12 0
7 -3 -15 0
7 -3 -18 0
7 -3 -21 0
7 -4 -7 0
7 -4 -10 0
7 -4 -13 0
7 -4 -16 0
7 -4 -19 0
7 -5 -8 0
7 -5 -11 0
7 -5 -14 0
7 -5 -17 0
7 -5 -20 0
7 -6 -9 0
7 -6 -12 0
7 -6 -15 0
7 -6 -18 0
7 -6 -21 0
7 -7 -10 0
7 -7 -13 0
7 -7 -16 0
7 -7 -19 0
7 -8 -11 0
7 -8 -14 0
7 -8 -17 0
7 -8 -20 0
7 -9 -12 0
7 -9 -15 0
7 -9 -18 0
7 -9 -21 0
7 -10 -13 0
7 -10 -16 0
7 -10 -19 0
7 -11 -14 0
7 -11 -17 0
7 -11 -20 0
7 -12 -15 0
7 -12 -18 0
7 -12 -21 0
7 -13 -16 0
7 -13 -19 0
7 -14 -17 0
7 -14 -20 0
7 -15 -18 0
7 -15 -21 0
7 -16 -19 0
7 -17 -20 0
7 -18 -21 0
7 -1 -2 0
7 -1 -3 0
7 -2 -3 0
7 -4 -5 0
7 -4 -6 0
7 -5 -6 0
7 -7 -8 0
7 -7 -9 0
7 -8 -9 0
7 -10 -11 0
7 -10 -12 0
7 -11 -12 0
7 -13 -14 0
7 -13 -15 0
7 -14 -15 0
7 -16 -17 0
7 -16 -18 0
7 -17 -18 0
7 -19 -20 0
7 -19 -21 0
7 -20 -21 0
